p cnf 35 8
-7 -10 -12 -14 -15 -16 -18 -19 -20 -21 -22 -24 -25 -28 -29 -30 -31 -32 -33 -35 0
-1 -2 -4 -8 -10 -11 -13 -21 -23 -26 0
-1 -2 -4 -6 -8 -11 -13 -15 -21 -23 -26 -34 0
-1 -2 -3 -4 -6 -8 -9 -11 -13 -26 -27 -33 -34 0
-7 -8 -10 -11 -12 -13 -17 -19 -21 -22 -23 -25 -26 0
-7 -8 -10 -11 -12 -13 -19 -21 -22 -23 -25 -26 -29 0
-1 -2 -3 -4 -8 -9 -10 -11 -13 -23 -26 -27 0
-3 -4 -5 -6 -7 -9 -11 -16 -17 -18 -19 -20 -27 -28 -30 -31 -32 -33 -34 -35 0
